c CNF file corresponding to a (partial) station packing problem.
p cnf 3473 229
1 2 3 4 5 6 7 8 9 10 11 12 13 14 0
-1 -2 0
-1 -3 0
-1 -4 0
-1 -5 0
-1 -6 0
-1 -7 0
-1 -8 0
-1 -9 0
-1 -10 0
-1 -11 0
-1 -12 0
-1 -13 0
-1 -14 0
-2 -3 0
-2 -4 0
-2 -5 0
-2 -6 0
-2 -7 0
-2 -8 0
-2 -9 0
-2 -10 0
-2 -11 0
-2 -12 0
-2 -13 0
-2 -14 0
-3 -4 0
-3 -5 0
-3 -6 0
-3 -7 0
-3 -8 0
-3 -9 0
-3 -10 0
-3 -11 0
-3 -12 0
-3 -13 0
-3 -14 0
-4 -5 0
-4 -6 0
-4 -7 0
-4 -8 0
-4 -9 0
-4 -10 0
-4 -11 0
-4 -12 0
-4 -13 0
-4 -14 0
-5 -6 0
-5 -7 0
-5 -8 0
-5 -9 0
-5 -10 0
-5 -11 0
-5 -12 0
-5 -13 0
-5 -14 0
-6 -7 0
-6 -8 0
-6 -9 0
-6 -10 0
-6 -11 0
-6 -12 0
-6 -13 0
-6 -14 0
-7 -8 0
-7 -9 0
-7 -10 0
-7 -11 0
-7 -12 0
-7 -13 0
-7 -14 0
-8 -9 0
-8 -10 0
-8 -11 0
-8 -12 0
-8 -13 0
-8 -14 0
-9 -10 0
-9 -11 0
-9 -12 0
-9 -13 0
-9 -14 0
-10 -11 0
-10 -12 0
-10 -13 0
-10 -14 0
-11 -12 0
-11 -13 0
-11 -14 0
-12 -13 0
-12 -14 0
-13 -14 0
3457 3458 3459 3460 3461 3462 3463 3464 3465 3466 3467 3468 3469 3470 3471 3472 3473 0
-3457 -3458 0
-3457 -3459 0
-3457 -3460 0
-3457 -3461 0
-3457 -3462 0
-3457 -3463 0
-3457 -3464 0
-3457 -3465 0
-3457 -3466 0
-3457 -3467 0
-3457 -3468 0
-3457 -3469 0
-3457 -3470 0
-3457 -3471 0
-3457 -3472 0
-3457 -3473 0
-3458 -3459 0
-3458 -3460 0
-3458 -3461 0
-3458 -3462 0
-3458 -3463 0
-3458 -3464 0
-3458 -3465 0
-3458 -3466 0
-3458 -3467 0
-3458 -3468 0
-3458 -3469 0
-3458 -3470 0
-3458 -3471 0
-3458 -3472 0
-3458 -3473 0
-3459 -3460 0
-3459 -3461 0
-3459 -3462 0
-3459 -3463 0
-3459 -3464 0
-3459 -3465 0
-3459 -3466 0
-3459 -3467 0
-3459 -3468 0
-3459 -3469 0
-3459 -3470 0
-3459 -3471 0
-3459 -3472 0
-3459 -3473 0
-3460 -3461 0
-3460 -3462 0
-3460 -3463 0
-3460 -3464 0
-3460 -3465 0
-3460 -3466 0
-3460 -3467 0
-3460 -3468 0
-3460 -3469 0
-3460 -3470 0
-3460 -3471 0
-3460 -3472 0
-3460 -3473 0
-3461 -3462 0
-3461 -3463 0
-3461 -3464 0
-3461 -3465 0
-3461 -3466 0
-3461 -3467 0
-3461 -3468 0
-3461 -3469 0
-3461 -3470 0
-3461 -3471 0
-3461 -3472 0
-3461 -3473 0
-3462 -3463 0
-3462 -3464 0
-3462 -3465 0
-3462 -3466 0
-3462 -3467 0
-3462 -3468 0
-3462 -3469 0
-3462 -3470 0
-3462 -3471 0
-3462 -3472 0
-3462 -3473 0
-3463 -3464 0
-3463 -3465 0
-3463 -3466 0
-3463 -3467 0
-3463 -3468 0
-3463 -3469 0
-3463 -3470 0
-3463 -3471 0
-3463 -3472 0
-3463 -3473 0
-3464 -3465 0
-3464 -3466 0
-3464 -3467 0
-3464 -3468 0
-3464 -3469 0
-3464 -3470 0
-3464 -3471 0
-3464 -3472 0
-3464 -3473 0
-3465 -3466 0
-3465 -3467 0
-3465 -3468 0
-3465 -3469 0
-3465 -3470 0
-3465 -3471 0
-3465 -3472 0
-3465 -3473 0
-3466 -3467 0
-3466 -3468 0
-3466 -3469 0
-3466 -3470 0
-3466 -3471 0
-3466 -3472 0
-3466 -3473 0
-3467 -3468 0
-3467 -3469 0
-3467 -3470 0
-3467 -3471 0
-3467 -3472 0
-3467 -3473 0
-3468 -3469 0
-3468 -3470 0
-3468 -3471 0
-3468 -3472 0
-3468 -3473 0
-3469 -3470 0
-3469 -3471 0
-3469 -3472 0
-3469 -3473 0
-3470 -3471 0
-3470 -3472 0
-3470 -3473 0
-3471 -3472 0
-3471 -3473 0
-3472 -3473 0
